0 74 77
1 80 80
2 77 84
3 80 84
4 79 85
5 67 85
6 80 84
7 64 82
8 71 80
9 69 81
10 80 80
11 70 79
12 74 79
13 76 77
14 74 75
15 67 72
16 70 72
17 67 72
18 61 72
19 54 69
20 62 65
21 59 63
22 44 66
23 63 63
24 55 60
25 59 59
26 57 58
27 58 58
28 55 57
29 55 58
30 57 58
31 56 58
32 29 56
33 52 54
34 52 53
35 42 50
36 33 50
37 49 51
38 47 49
39 45 46
40 49 49
41 48 48
42 42 47
43 36 46
44 47 47
45 32 45
46 41 41
47 38 42
48 40 42
49 38 39
50 35 37
51 25 36
52 28 33
53 30 31
54 32 34
55 34 35
56 31 34
57 29 31
58 8 30
59 26 27
60 15 26
61 22 23
62 10 20
63 18 19
64 18 18
65 10 18
66 12 15
67 10 14
68 7 11
69 7 10
70 10 10
71 8 10
72 8 9
73 4 6
74 4 5
75 2 5
76 1 2

